NAME :  IRP
COMMENT : 
TYPE :  CVRP
DIMENSION : 	10
EDGE_WEIGHT_TYPE : 	EUC_2D
CAPACITY : 	452
NODE_COORD_SECTION
1	407	331
2	195	207
3	268	232
4	252	361
5	243	291
6	343	432
7	405	318
8	329	364
9	275	357
10	255	384
DEMAND_SECTION
1	0
2	228
3	224
4	105
5	303
6	192
7	88
8	111
9	183
10	158
DEPOT_SECTION
	1
	-1
EOF
